
******************************************************************************
This program contains Ipopt, a library for large-scale nonlinear optimization.
 Ipopt is released as open source code under the Eclipse Public License (EPL).
         For more information visit http://projects.coin-or.org/Ipopt
******************************************************************************

NOTE: You are using Ipopt by default with the MUMPS linear solver.
      Other linear solvers might be more efficient (see Ipopt documentation).


This is Ipopt version trunk, running with linear solver mumps.

Number of nonzeros in equality constraint Jacobian...:   537295
Number of nonzeros in inequality constraint Jacobian.:        0
Number of nonzeros in Lagrangian Hessian.............:        0

Total number of variables............................:      895
                     variables with only lower bounds:        0
                variables with lower and upper bounds:      895
                     variables with only upper bounds:        0
Total number of equality constraints.................:      601
Total number of inequality constraints...............:        1
        inequality constraints with only lower bounds:        0
   inequality constraints with lower and upper bounds:        1
        inequality constraints with only upper bounds:        0

iter    objective    inf_pr   inf_du lg(mu)  ||d||  lg(rg) alpha_du alpha_pr  ls
   0 1.9999980e+002 1.88e-001 1.00e+002   0.0 0.00e+000    -  0.00e+000 0.00e+000   0
   1 1.9998000e+000 1.82e-001 2.65e+000  -0.3 5.03e-001    -  9.78e-001 1.97e-002h  1
   2 1.2592914e+000 1.94e+000 2.07e-001  -2.2 1.88e-003    -  1.00e+000 1.00e+000h  1
   3 4.4088388e-002 2.51e+002 1.02e+001  -3.7 1.74e-002    -  9.99e-001 1.00e+000h  1
   4 7.4696184e-004 3.98e+002 1.37e-004  -5.3 3.81e-003    -  1.00e+000 1.00e+000h  1
   5 -1.8764569e-004 6.31e+002 1.79e-006  -7.2 4.61e-003    -  9.95e-001 1.00e+000h  1
   6r-1.8764569e-004 6.31e+002 9.99e+002   2.8 0.00e+000    -  0.00e+000 4.77e-007R 22
   7r4.1264086e+001 6.52e+003 9.96e+002   4.4 6.06e+005    -  3.04e-003 8.14e-006f  2
   8r8.0906945e+001 6.45e+003 8.96e+002   1.9 1.55e+005    -  6.31e-001 3.99e-003f  1
   9r8.0917535e+001 4.07e+004 1.80e+003  -3.5 9.91e+000    -  6.04e-001 6.26e-001f  1
iter    objective    inf_pr   inf_du lg(mu)  ||d||  lg(rg) alpha_du alpha_pr  ls
  10r1.9800809e+004 1.63e+005 3.69e+003   2.0 1.35e+000    -  1.00e+000 7.30e-001f  1
  11r1.5245990e+004 2.57e+004 1.95e+002   1.6 2.28e-001    -  1.00e+000 1.00e+000f  1
  12r1.3972339e+004 2.93e+004 3.18e+002   1.1 7.53e-002    -  1.00e+000 1.00e+000f  1
  13r5.9954400e+003 8.87e+004 5.01e+002   1.4 3.99e-001    -  1.00e+000 1.00e+000f  1
  14r8.9319362e+003 3.84e+004 1.84e+002   1.3 1.47e-001    -  1.00e+000 1.00e+000f  1
  15r9.7357290e+003 1.87e+004 2.11e+002   1.3 4.02e-002    -  1.00e+000 1.00e+000h  1
  16r9.5397454e+003 2.37e+004 4.32e+002   0.8 1.06e-001    -  1.00e+000 1.00e+000f  1
  17r1.0454458e+004 7.00e+004 3.81e+002   1.3 2.17e-001    -  1.00e+000 1.00e+000f  1
  18r9.7905963e+003 2.24e+003 1.64e+002   1.2 1.29e-001    -  1.00e+000 1.00e+000f  1
  19r9.5168461e+003 3.74e+003 1.79e+001   0.5 2.86e-002    -  1.00e+000 1.00e+000f  1
iter    objective    inf_pr   inf_du lg(mu)  ||d||  lg(rg) alpha_du alpha_pr  ls
  20r8.9169583e+003 5.95e+003 6.37e+000  -0.5 3.66e-002    -  1.00e+000 1.00e+000f  1
  21r8.0947026e+003 1.72e+004 7.33e+000  -1.8 4.99e-002    -  9.75e-001 1.00e+000f  1
  22r6.3057842e+003 7.17e+004 1.23e+001  -2.0 8.94e-002    -  1.00e+000 1.00e+000h  1
  23r4.8825949e+003 6.32e+004 1.41e-002  -2.9 7.12e-002    -  1.00e+000 1.00e+000h  1
  24r3.3978092e+003 2.16e+003 1.33e+000  -3.6 1.24e-001    -  8.38e-001 1.00e+000h  1
  25r2.7147605e+003 2.45e+003 9.26e-004  -4.4 3.51e-002    -  1.00e+000 1.00e+000h  1
  26r1.9269306e+003 1.45e+003 4.19e-004  -5.6 3.94e-002    -  9.93e-001 1.00e+000h  1
  27r1.4853281e+003 4.64e+003 9.21e-005  -6.5 4.63e-002    -  1.00e+000 1.00e+000h  1
  28r1.3030991e+003 3.34e+003 1.21e-004  -7.4 2.62e-002    -  1.00e+000 1.00e+000h  1
  29r1.1622044e+003 3.53e+003 5.92e-006  -9.0 7.04e-003    -  1.00e+000 1.00e+000h  1
iter    objective    inf_pr   inf_du lg(mu)  ||d||  lg(rg) alpha_du alpha_pr  ls
  30r1.1622044e+003 3.53e+003 2.19e+005  -9.0 1.95e-002    -  0.00e+000 4.77e-007R 22
  31r1.9811622e+004 2.50e+003 2.18e+005   3.0 1.52e+004    -  3.83e-003 6.12e-005f  1
  32r1.9811602e+002 7.14e+004 1.11e+006   2.3 3.53e+003    -  8.06e-004 1.91e-001f  1
  33r5.8105103e+003 1.24e+006 1.50e+006   2.3 2.86e+003    -  2.66e-001 9.32e-002f  1
  34r1.3118226e+004 2.96e+005 4.19e+005   2.3 2.59e+003    -  6.10e-001 3.98e-001f  1
  35r1.5921900e+004 3.28e+005 6.37e+004   2.3 1.56e+003    -  9.03e-001 8.10e-001f  1
  36r1.7096141e+004 5.61e+005 8.79e+003   2.3 2.96e+002    -  4.81e-001 9.91e-001f  1
  37r1.5681668e+004 1.57e+005 1.97e+003   2.3 2.77e+000    -  7.04e-001 1.00e+000f  1
  38r1.2905015e+004 5.47e+004 3.41e+002   2.3 1.39e-001    -  1.00e+000 1.00e+000f  1
  39r9.5393267e+003 6.09e+004 3.03e+002   2.3 1.68e-001    -  1.00e+000 1.00e+000f  1
iter    objective    inf_pr   inf_du lg(mu)  ||d||  lg(rg) alpha_du alpha_pr  ls
  40r9.8977008e+003 6.97e+004 2.55e+002   2.3 2.11e-002    -  1.00e+000 1.00e+000h  1
  41r9.9936192e+003 1.01e+004 1.30e+002   2.3 7.34e-002    -  1.00e+000 1.00e+000h  1
  42r9.9512547e+003 9.43e+003 1.06e+002   2.3 2.18e-002    -  1.00e+000 1.00e+000h  1
  43r9.9068745e+003 7.14e+003 1.34e+002   2.3 1.18e-002    -  1.00e+000 1.00e+000h  1
  44r9.9032465e+003 4.97e+003 1.00e+002   2.3 1.09e-002    -  1.00e+000 1.00e+000h  1
  45r9.9217836e+003 4.28e+003 2.99e+002   2.3 7.55e-003    -  1.00e+000 1.00e+000h  1
  46r9.9148616e+003 4.94e+003 6.53e+001   2.3 9.66e-003    -  1.00e+000 1.00e+000h  1
  47r9.9183423e+003 4.55e+003 1.92e+002   2.3 9.10e-003    -  1.00e+000 1.00e+000h  1
  48r9.9183423e+003 4.55e+003 3.36e+001   2.3 1.01e-002    -  0.00e+000 4.77e-007R 22
  49r9.9186932e+003 5.01e+003 8.18e+001   2.3 4.55e+003    -  1.00e+000 4.95e-001f  2
iter    objective    inf_pr   inf_du lg(mu)  ||d||  lg(rg) alpha_du alpha_pr  ls
  50r9.9158488e+003 5.25e+003 4.93e+001   2.3 2.30e+003    -  1.00e+000 2.48e-001f  3
  51r9.9145326e+003 5.29e+003 6.73e+001   2.3 1.73e+003    -  1.00e+000 2.48e-001f  3
  52r9.9133216e+003 4.94e+003 1.14e+002   2.3 1.30e+003    -  1.00e+000 2.48e-001f  3
  53r9.9128730e+003 4.98e+003 1.41e+002   2.3 9.78e+002    -  1.00e+000 1.24e-001f  4
  54r9.9091691e+003 7.67e+003 3.08e+002   2.3 8.57e+002    -  1.00e+000 9.90e-001f  1
  55r9.9095965e+003 1.59e+004 9.70e+002   2.3 8.39e+000    -  1.00e+000 1.00e+000f  1
  56r9.9099662e+003 1.25e+004 1.42e+002   2.3 4.21e-002    -  1.00e+000 1.00e+000h  1
  57r9.9098985e+003 1.30e+004 1.95e+002   2.3 2.37e-002    -  1.00e+000 5.00e-001h  2
  58r9.9109300e+003 1.29e+004 1.08e+002   2.3 2.02e-002    -  1.00e+000 1.00e+000h  1
  59r9.9114524e+003 8.86e+003 9.30e+002   2.3 2.72e-002    -  1.00e+000 1.00e+000h  1
iter    objective    inf_pr   inf_du lg(mu)  ||d||  lg(rg) alpha_du alpha_pr  ls
  60r9.9099405e+003 9.64e+003 1.88e+002   2.3 1.17e-002    -  1.00e+000 1.00e+000h  1
  61r9.9084976e+003 7.79e+003 1.02e+002   2.3 1.41e-002    -  1.00e+000 1.00e+000h  1
  62r9.9099739e+003 9.08e+003 1.89e+002   2.3 1.44e-002    -  1.00e+000 1.00e+000h  1
  63r9.9103705e+003 1.05e+004 9.89e+001   2.3 1.16e-002    -  1.00e+000 5.00e-001h  2
  64r9.9103570e+003 1.05e+004 4.08e+001   2.3 2.22e-002    -  1.00e+000 1.25e-001h  4
  65r9.9103445e+003 1.02e+004 4.86e+001   2.3 1.43e-002    -  1.00e+000 6.25e-002h  5
  66r9.9103188e+003 9.90e+003 1.73e+002   2.3 1.59e-002    -  1.00e+000 6.25e-002h  5
  67r9.9102446e+003 9.70e+003 3.18e+001   2.3 1.47e-002    -  1.00e+000 1.25e-001h  4
  68r9.9100267e+003 7.38e+003 1.11e+002   2.3 2.36e-002    -  1.00e+000 5.00e-001h  2
  69r9.9100267e+003 7.38e+003 5.00e+001   2.3 1.52e-002    -  0.00e+000 4.77e-007R 22
iter    objective    inf_pr   inf_du lg(mu)  ||d||  lg(rg) alpha_du alpha_pr  ls
  70r9.9099357e+003 8.26e+003 2.62e+002   2.3 7.38e+003    -  1.00e+000 4.95e-001f  2
  71r9.9099045e+003 8.53e+003 3.85e+002   2.3 3.73e+003    -  1.00e+000 4.95e-001f  2
  72r9.9099027e+003 8.39e+003 1.20e+002   2.3 1.88e+003    -  1.00e+000 2.48e-001f  3
  73r9.9098879e+003 8.20e+003 1.31e+002   2.3 1.42e+003    -  1.00e+000 2.48e-001f  3
  74r9.9098678e+003 7.54e+003 7.16e+001   2.3 1.07e+003    -  1.00e+000 4.95e-001f  2
  75r9.9097836e+003 9.17e+003 1.22e+002   2.3 5.38e+002    -  1.00e+000 9.90e-001f  1
  76r9.9097933e+003 1.55e+004 1.24e+003   2.3 5.19e+000    -  1.00e+000 1.00e+000f  1
  77r9.9097933e+003 1.55e+004 8.30e+001   2.3 1.92e-002    -  0.00e+000 4.77e-007R 22
  78r9.9098561e+003 2.00e+004 6.59e+002   2.3 1.55e+004    -  1.00e+000 4.95e-001f  2
  79r9.9100253e+003 1.48e+004 2.23e+002   2.3 7.85e+003    -  1.00e+000 9.90e-001f  1
iter    objective    inf_pr   inf_du lg(mu)  ||d||  lg(rg) alpha_du alpha_pr  ls
  80r9.9098195e+003 8.73e+003 5.82e+001   2.3 7.83e+001    -  1.00e+000 9.92e-001f  1
  81r9.9097427e+003 6.65e+003 1.67e+002   2.3 5.96e-001    -  1.00e+000 1.00e+000f  1
  82r9.9097941e+003 8.59e+003 4.49e+002   2.3 1.05e-002    -  1.00e+000 1.00e+000h  1
  83r9.9098478e+003 1.12e+004 3.43e+002   2.3 1.13e-002    -  1.00e+000 1.00e+000h  1
  84r9.9098127e+003 1.02e+004 5.50e+001   2.3 7.30e-003    -  1.00e+000 1.00e+000h  1
  85r9.9097452e+003 6.44e+003 6.05e+002   2.3 1.80e-002    -  1.00e+000 1.00e+000h  1
  86r9.9097791e+003 5.94e+003 1.84e+002   2.3 9.22e-003    -  1.00e+000 1.00e+000h  1
  87r9.9097914e+003 7.44e+003 4.43e+001   2.3 8.02e-003    -  1.00e+000 1.00e+000h  1
  88r9.9098046e+003 5.60e+003 3.45e+002   2.3 1.70e-002    -  1.00e+000 1.00e+000h  1
  89r9.9098038e+003 5.39e+003 8.05e+001   2.3 8.74e-003    -  1.00e+000 1.00e+000h  1
iter    objective    inf_pr   inf_du lg(mu)  ||d||  lg(rg) alpha_du alpha_pr  ls
  90r9.9098038e+003 5.39e+003 3.74e+001   2.3 1.68e-002    -  0.00e+000 4.77e-007R 22
  91r9.9098091e+003 5.64e+003 2.59e+002   2.3 5.39e+003    -  1.00e+000 4.95e-001f  2
  92r9.9098086e+003 5.86e+003 1.51e+002   2.3 2.72e+003    -  1.00e+000 4.95e-001f  2
  93r9.9098084e+003 5.11e+003 2.47e+002   2.3 1.37e+003    -  1.00e+000 4.95e-001f  2
  94r9.9098088e+003 5.16e+003 7.40e+001   2.3 6.94e+002    -  1.00e+000 4.95e-001f  2
  95r9.9098107e+003 5.02e+003 2.68e+002   2.3 3.50e+002    -  1.00e+000 9.91e-001f  1
  96r9.9098113e+003 5.22e+003 1.25e+002   2.3 3.32e+000    -  1.00e+000 2.50e-001f  3
  97r9.9098134e+003 5.32e+003 1.04e+002   2.3 2.49e+000    -  1.00e+000 5.00e-001f  2
  98r9.9098140e+003 5.36e+003 1.43e+002   2.3 1.24e+000    -  1.00e+000 1.25e-001f  4
  99r9.9098142e+003 5.38e+003 2.38e+002   2.3 1.09e+000    -  1.00e+000 3.13e-002f  6
iter    objective    inf_pr   inf_du lg(mu)  ||d||  lg(rg) alpha_du alpha_pr  ls
 100r9.9098142e+003 5.39e+003 2.57e+002   2.3 1.05e+000    -  1.00e+000 3.91e-003f  9
 101r9.9098078e+003 5.27e+003 6.32e+002   2.3 1.05e+000    -  1.00e+000 1.00e+000f  1
 102r9.9098072e+003 5.15e+003 5.44e+001   2.3 9.36e-003    -  1.00e+000 1.00e+000h  1
 103r9.9098088e+003 5.02e+003 1.02e+002   2.3 2.97e-002    -  1.00e+000 1.00e+000h  1
 104r9.9098089e+003 5.02e+003 1.03e+002   2.3 1.12e-002    -  1.00e+000 3.13e-002h  6
 105r9.9098089e+003 5.15e+003 1.36e+002   2.3 2.00e-002    -  1.00e+000 2.50e-001h  3
 106r9.9098089e+003 5.15e+003 3.31e+001   2.3 1.09e-002    -  0.00e+000 4.77e-007R 22
 107r9.9098096e+003 5.54e+003 9.24e+001   2.3 5.15e+003    -  1.00e+000 4.95e-001f  2
 108r9.9098099e+003 6.16e+003 3.84e+001   2.3 2.60e+003    -  1.00e+000 4.95e-001f  2
 109r9.9098124e+003 5.65e+003 7.85e+001   2.3 1.31e+003    -  1.00e+000 4.95e-001f  2
iter    objective    inf_pr   inf_du lg(mu)  ||d||  lg(rg) alpha_du alpha_pr  ls
 110r9.9098153e+003 5.18e+003 1.04e+002   2.3 6.63e+002    -  1.00e+000 4.95e-001f  2
 111r9.9098183e+003 4.92e+003 1.89e+002   2.3 3.35e+002    -  1.00e+000 4.95e-001f  2
 112r9.9098223e+003 7.39e+003 3.94e+002   2.3 1.69e+002    -  1.00e+000 9.91e-001f  1
 113r9.9098212e+003 1.29e+004 1.25e+003   2.3 1.50e+000    -  1.00e+000 1.00e+000f  1
 114r9.9098115e+003 1.66e+004 5.58e+002   2.3 2.48e-002    -  1.00e+000 1.00e+000h  1
 115r9.9098058e+003 1.33e+004 1.02e+002   2.3 1.93e-002    -  1.00e+000 1.00e+000h  1
 116r9.9098073e+003 9.80e+003 2.85e+002   2.3 1.99e-002    -  1.00e+000 1.00e+000h  1
 117r9.9098083e+003 8.71e+003 1.30e+002   2.3 1.31e-002    -  1.00e+000 1.00e+000h  1
 118r9.9098086e+003 8.99e+003 1.43e+002   2.3 1.14e-002    -  1.00e+000 1.00e+000h  1
 119r9.9098086e+003 9.96e+003 8.62e+001   2.3 1.19e-002    -  1.00e+000 1.00e+000h  1
iter    objective    inf_pr   inf_du lg(mu)  ||d||  lg(rg) alpha_du alpha_pr  ls
 120r9.9098085e+003 9.93e+003 9.70e+001   2.3 1.21e-002    -  1.00e+000 2.50e-001h  3
 121r9.9098065e+003 9.12e+003 1.94e+002   2.3 1.27e-002    -  1.00e+000 1.00e+000h  1
 122r9.9098057e+003 8.49e+003 5.44e+001   2.3 1.13e-002    -  1.00e+000 1.00e+000h  1
 123r9.9098077e+003 6.86e+003 2.75e+001   2.3 1.47e-002    -  1.00e+000 1.00e+000h  1
 124r9.9098090e+003 6.74e+003 8.23e+001   2.3 1.10e-002    -  1.00e+000 5.00e-001h  2
 125r9.9098090e+003 6.74e+003 5.31e+001   2.3 1.29e-002    -  0.00e+000 4.77e-007R 22
 126r9.9098102e+003 7.55e+003 8.62e+001   2.3 6.74e+003    -  1.00e+000 4.95e-001f  2
 127r9.9098111e+003 8.22e+003 8.15e+001   2.3 3.40e+003    -  1.00e+000 2.48e-001f  3
 128r9.9098125e+003 8.15e+003 1.51e+002   2.3 2.56e+003    -  1.00e+000 2.48e-001f  3
 129r9.9098126e+003 8.10e+003 7.86e+001   2.3 1.93e+003    -  1.00e+000 2.48e-001f  3
iter    objective    inf_pr   inf_du lg(mu)  ||d||  lg(rg) alpha_du alpha_pr  ls
 130r9.9098128e+003 8.10e+003 8.27e+001   2.3 1.45e+003    -  1.00e+000 3.09e-002f  6
 131r9.9098165e+003 9.56e+003 3.54e+002   2.3 1.40e+003    -  1.00e+000 9.90e-001f  1
 132r9.9098202e+003 1.79e+004 4.85e+002   2.3 1.39e+001    -  1.00e+000 1.00e+000f  1
 133r9.9098202e+003 1.79e+004 1.13e+002   2.3 2.38e-002    -  0.00e+000 4.77e-007R 22
 134r9.9098217e+003 2.51e+004 2.98e+002   2.3 1.79e+004    -  1.00e+000 4.95e-001f  2
 135r9.9098216e+003 2.56e+004 1.63e+002   2.3 9.03e+003    -  1.00e+000 1.24e-001f  4
 136r9.9098203e+003 2.36e+004 3.84e+002   2.3 7.92e+00